NAME : cgl_26.6522.tour
COMMENT : Length = 6522
COMMENT : Found by LKH-3 [Keld Helsgaun] Fri Nov  8 19:20:29 2024
TYPE : TOUR
DIMENSION : 26
TOUR_SECTION
13
12
17
18
21
20
19
22
23
25
24
26
1
2
3
4
5
10
8
7
6
15
16
14
9
11
-1
EOF
